% Instancia Pequeñas #1
% Generada el 2025-11-16 10:21:20

num_trabajadores = 6;
horizonte_dias = 7;
num_semanas = 1;
TURNOS = 1..2;

demanda = array2d(1..horizonte_dias, 1..2, [
  2, 1,
  2, 1,
  2, 1,
  2, 1,
  2, 1,
  2, 1,
  2, 1
]);

puntajes = array3d(1..num_trabajadores, 1..horizonte_dias, 1..2, [
  0, 10,
  0, 0,
  3, 6,
  1, 9,
  6, 5,
  3, 4,
  5, 1,
  4, 8,
  1, 8,
  7, 5,
  1, 4,
  1, 9,
  4, 7,
  3, 9,
  3, 1,
  3, 3,
  9, 4,
  6, 0,
  8, 3,
  1, 10,
  10, 10,
  3, 9,
  3, 10,
  4, 2,
  1, 7,
  4, 1,
  3, 5,
  4, 2,
  2, 6,
  8, 8,
  0, 3,
  5, 8,
  10, 0,
  1, 2,
  10, 8,
  1, 0,
  9, 6,
  2, 5,
  5, 1,
  9, 10,
  6, 5,
  10, 3
]);
